
Cover cuts applied:  2
Mixed integer rounding cuts applied:  1
Gomory fractional cuts applied:  1

Root node processing (before b&c):
  Real time             =    0.16 sec. (148.25 ticks)
Parallel b&c, 4 threads:
  Real time             =    0.00 sec. (0.00 ticks)
  Sync time (average)   =    0.00 sec.
  Wait time (average)   =    0.00 sec.
                          ------------
Total (root+branch&cut) =    0.16 sec. (148.25 ticks)
Version identifier: 12.10.0.0 | 2019-11-26 | 843d4de
CPXPARAM_MIP_Interval                            10
CPXPARAM_MIP_Tolerances_AbsMIPGap                0.98999999999999999
Tried aggregator 2 times.
MIP Presolve eliminated 20213 rows and 20250 columns.
MIP Presolve modified 1 coefficients.
Aggregator did 75 substitutions.
Reduced MIP has 3175 rows, 2439 columns, and 9779 nonzeros.
Reduced MIP has 2439 binaries, 0 generals, 0 SOSs, and 0 indicators.
Presolve time = 0.03 sec. (29.85 ticks)
Probing fixed 30 vars, tightened 0 bounds.
Probing changed sense of 64 constraints.
Probing time = 0.01 sec. (12.44 ticks)
Tried aggregator 2 times.
MIP Presolve eliminated 334 rows and 250 columns.
Aggregator did 40 substitutions.
Reduced MIP has 2801 rows, 2149 columns, and 8604 nonzeros.
Reduced MIP has 2149 binaries, 0 generals, 0 SOSs, and 0 indicators.
Presolve time = 0.01 sec. (11.27 ticks)
Probing time = 0.00 sec. (6.31 ticks)
Tried aggregator 2 times.
Detecting symmetries...
MIP Presolve eliminated 121 rows and 97 columns.
Aggregator did 1 substitutions.
Reduced MIP has 2679 rows, 2051 columns, and 8215 nonzeros.
Reduced MIP has 2051 binaries, 0 generals, 0 SOSs, and 0 indicators.
Presolve time = 0.01 sec. (12.37 ticks)
Probing time = 0.00 sec. (2.68 ticks)
Clique table members: 2023.
MIP emphasis: balance optimality and feasibility.
MIP search method: dynamic search.
Parallel mode: deterministic, using up to 4 threads.
Root relaxation solution time = 0.02 sec. (27.70 ticks)

        Nodes                                         Cuts/
   Node  Left     Objective  IInf  Best Integer    Best Bound    ItCnt     Gap

      0     0       17.8333   404                     17.8333      559         
*     0+    0                           16.0000       17.8333            11.46%
      0     0       17.8062   404       16.0000      Cuts: 91      844   11.29%
      0     0       17.6916   404       16.0000     Cuts: 135     1004   10.57%
      0     0       17.6854   404       16.0000     Cuts: 110     1145   10.53%
      0     0       17.6852   404       16.0000      Cuts: 73     1216   10.21%
      0     0       17.6852   404       16.0000      Cuts: 90     1280   10.21%
Detecting symmetries...
      0     0       17.6850   404       16.0000       Cuts: 2     1284    8.85%
      0     0       17.6671   404       16.0000     Cuts: 106     1563    8.85%
      0     0        cutoff             16.0000       16.0000     1563    0.00%
Elapsed time = 0.65 sec. (573.72 ticks, tree = 0.01 MB, solutions = 1)
the number of Nodes = 0
